NAME: ACTUAL_TOURS/amz2052
TYPE: TOUR
COMMENT: RouteID_d9bca853-3bb1-48f0-a812-f10dec2fec99
DIMENSION: 160
TOUR_SECTION
12
37
19
82
39
97
107
1
142
64
75
42
35
65
121
24
2
27
30
103
14
111
78
76
120
15
22
131
8
23
25
47
130
144
81
102
145
147
62
106
4
124
33
45
63
52
134
71
77
86
157
87
104
85
56
98
55
96
53
143
137
105
68
3
93
44
101
17
126
69
70
117
29
100
28
5
26
88
90
67
54
18
129
95
108
58
94
99
80
43
133
140
122
118
151
114
73
51
128
123
59
16
7
61
10
154
150
9
148
132
141
115
92
125
38
119
91
49
146
74
48
127
153
155
136
32
89
66
152
158
46
79
72
34
84
6
50
139
110
113
60
21
135
40
159
83
57
109
41
31
149
11
160
13
156
20
116
112
36
138
-1
EOF
